CPXPARAM_Simplex_Display                         2
CPXPARAM_TimeLimit                               7200
CPXPARAM_Read_APIEncoding                        "*"
CPXPARAM_Output_CloneLog                         1
CPXPARAM_MIP_Tolerances_MIPGap                   0.035000000000000003
CPXPARAM_MIP_Interval                            20
CPXPARAM_MIP_Strategy_VariableSelect             1
CPXPARAM_Barrier_Display                         2
Tried aggregator 1 time.
MIP Presolve eliminated 13 rows and 0 columns.
MIP Presolve added 78300 rows and 39150 columns.
MIP Presolve modified 13929 coefficients.
Reduced MIP has 78388 rows, 40050 columns, and 162586 nonzeros.
Reduced MIP has 40050 binaries, 0 generals, 0 SOSs, and 0 indicators.
Presolve time = 0.06 sec. (26.13 ticks)
Probing fixed 14 vars, tightened 0 bounds.
Probing time = 0.95 sec. (17.55 ticks)
Tried aggregator 1 time.
MIP Presolve eliminated 53447 rows and 14311 columns.
MIP Presolve modified 420 coefficients.
Reduced MIP has 24941 rows, 25739 columns, and 80307 nonzeros.
Reduced MIP has 25739 binaries, 0 generals, 0 SOSs, and 0 indicators.
Presolve time = 0.32 sec. (87.85 ticks)
Probing time = 0.12 sec. (15.45 ticks)
Tried aggregator 1 time.
Reduced MIP has 24941 rows, 25739 columns, and 80307 nonzeros.
Reduced MIP has 25739 binaries, 0 generals, 0 SOSs, and 0 indicators.
Presolve time = 0.16 sec. (52.37 ticks)
Probing time = 0.17 sec. (15.45 ticks)
Clique table members: 6131.
MIP emphasis: balance optimality and feasibility.
MIP search method: dynamic search.
Parallel mode: deterministic, using up to 32 threads.
Root relaxation solution time = 0.74 sec. (299.16 ticks)

        Nodes                                         Cuts/
   Node  Left     Objective  IInf  Best Integer    Best Bound    ItCnt     Gap

*     0+    0                        14453.3103        0.0000           100.00%
*     0+    0                          462.9263        0.0000           100.00%
      0     0      446.8868    86      462.9263      446.8868     1028    3.46%

Root node processing (before b&c):
  Real time             =    3.67 sec. (949.73 ticks)
Parallel b&c, 32 threads:
  Real time             =    0.00 sec. (0.00 ticks)
  Sync time (average)   =    0.00 sec.
  Wait time (average)   =    0.00 sec.
                          ------------
Total (root+branch&cut) =    3.67 sec. (949.73 ticks)
